NAME          DCAP_3_4_2_500_SS469
ROWS
 N  OBJ
 L  CON1
 L  CON2
 L  CON3
 L  CON4
 L  CON5
 L  CON6
 L  CON7
 L  CON8
 L  CON9
 L  CON10
 L  CON11
 L  CON12
 E  CON13
 E  CON14
 E  CON15
 E  CON16
 E  CON17
 E  CON18
 E  CON19
 E  CON20
COLUMNS
    x[1,1]    OBJ       6.180167      CON1      1.000000    
    x[1,1]    CON7      -1.000000     CON8      -1.000000   
    x[1,2]    OBJ       5.039546      CON2      1.000000    
    x[1,2]    CON8      -1.000000   
    x[2,1]    OBJ       6.732585      CON3      1.000000    
    x[2,1]    CON9      -1.000000     CON10     -1.000000   
    x[2,2]    OBJ       7.443064      CON4      1.000000    
    x[2,2]    CON10     -1.000000   
    x[3,1]    OBJ       6.563535      CON5      1.000000    
    x[3,1]    CON11     -1.000000     CON12     -1.000000   
    x[3,2]    OBJ       6.054841      CON6      1.000000    
    x[3,2]    CON12     -1.000000   
    MARKER    'MARKER'                'INTORG'
    u[1,1]    OBJ       48.076654     CON1      -1.000000   
    u[1,2]    OBJ       49.466655     CON2      -1.000000   
    u[2,1]    OBJ       49.996186     CON3      -1.000000   
    u[2,2]    OBJ       32.230043     CON4      -1.000000   
    u[3,1]    OBJ       20.066487     CON5      -1.000000   
    u[3,2]    OBJ       27.484319     CON6      -1.000000   
    y[1,1,1]  OBJ       7.244593      CON7      0.737316    
    y[1,1,1]  CON13     1.000000    
    y[1,1,2]  OBJ       7.800379      CON8      0.519050    
    y[1,1,2]  CON14     1.000000    
    y[1,2,1]  OBJ       6.769548      CON7      1.069981    
    y[1,2,1]  CON15     1.000000    
    y[1,2,2]  OBJ       7.505627      CON8      0.778615    
    y[1,2,2]  CON16     1.000000    
    y[1,3,1]  OBJ       6.606906      CON7      0.814954    
    y[1,3,1]  CON17     1.000000    
    y[1,3,2]  OBJ       7.238444      CON8      1.382430    
    y[1,3,2]  CON18     1.000000    
    y[1,4,1]  OBJ       6.382971      CON7      1.452447    
    y[1,4,1]  CON19     1.000000    
    y[1,4,2]  OBJ       7.785960      CON8      1.331091    
    y[1,4,2]  CON20     1.000000    
    y[2,1,1]  OBJ       5.022757      CON9      0.737316    
    y[2,1,1]  CON13     1.000000    
    y[2,1,2]  OBJ       6.313148      CON10     0.519050    
    y[2,1,2]  CON14     1.000000    
    y[2,2,1]  OBJ       9.366025      CON9      1.069981    
    y[2,2,1]  CON15     1.000000    
    y[2,2,2]  OBJ       8.026615      CON10     0.778615    
    y[2,2,2]  CON16     1.000000    
    y[2,3,1]  OBJ       7.148691      CON9      0.814954    
    y[2,3,1]  CON17     1.000000    
    y[2,3,2]  OBJ       5.814270      CON10     1.382430    
    y[2,3,2]  CON18     1.000000    
    y[2,4,1]  OBJ       5.043273      CON9      1.452447    
    y[2,4,1]  CON19     1.000000    
    y[2,4,2]  OBJ       9.311589      CON10     1.331091    
    y[2,4,2]  CON20     1.000000    
    y[3,1,1]  OBJ       8.212799      CON11     0.737316    
    y[3,1,1]  CON13     1.000000    
    y[3,1,2]  OBJ       6.009547      CON12     0.519050    
    y[3,1,2]  CON14     1.000000    
    y[3,2,1]  OBJ       8.691038      CON11     1.069981    
    y[3,2,1]  CON15     1.000000    
    y[3,2,2]  OBJ       6.873568      CON12     0.778615    
    y[3,2,2]  CON16     1.000000    
    y[3,3,1]  OBJ       5.302424      CON11     0.814954    
    y[3,3,1]  CON17     1.000000    
    y[3,3,2]  OBJ       8.246130      CON12     1.382430    
    y[3,3,2]  CON18     1.000000    
    y[3,4,1]  OBJ       9.508390      CON11     1.452447    
    y[3,4,1]  CON19     1.000000    
    y[3,4,2]  OBJ       5.215517      CON12     1.331091    
    y[3,4,2]  CON20     1.000000    
    z[1,1]    OBJ       801.557368    CON13     1.000000    
    z[1,2]    OBJ       838.940392    CON14     1.000000    
    z[2,1]    OBJ       916.675387    CON15     1.000000    
    z[2,2]    OBJ       834.956659    CON16     1.000000    
    z[3,1]    OBJ       796.022078    CON17     1.000000    
    z[3,2]    OBJ       939.658489    CON18     1.000000    
    z[4,1]    OBJ       815.726447    CON19     1.000000    
    z[4,2]    OBJ       635.600891    CON20     1.000000    
    MARKER    'MARKER'                 'INTEND'
RHS
    RHS       CON1      -0.000000     CON2      -0.000000   
    RHS       CON3      -0.000000     CON4      -0.000000   
    RHS       CON5      -0.000000     CON6      -0.000000   
    RHS       CON7      -0.000000     CON8      -0.000000   
    RHS       CON9      -0.000000     CON10     -0.000000   
    RHS       CON11     -0.000000     CON12     -0.000000   
    RHS       CON13     1.000000      CON14     1.000000    
    RHS       CON15     1.000000      CON16     1.000000    
    RHS       CON17     1.000000      CON18     1.000000    
    RHS       CON19     1.000000      CON20     1.000000    
BOUNDS
 BV BOUND     u[1,1]  
 BV BOUND     u[1,2]  
 BV BOUND     u[2,1]  
 BV BOUND     u[2,2]  
 BV BOUND     u[3,1]  
 BV BOUND     u[3,2]  
 BV BOUND     y[1,1,1]
 BV BOUND     y[1,1,2]
 BV BOUND     y[1,2,1]
 BV BOUND     y[1,2,2]
 BV BOUND     y[1,3,1]
 BV BOUND     y[1,3,2]
 BV BOUND     y[1,4,1]
 BV BOUND     y[1,4,2]
 BV BOUND     y[2,1,1]
 BV BOUND     y[2,1,2]
 BV BOUND     y[2,2,1]
 BV BOUND     y[2,2,2]
 BV BOUND     y[2,3,1]
 BV BOUND     y[2,3,2]
 BV BOUND     y[2,4,1]
 BV BOUND     y[2,4,2]
 BV BOUND     y[3,1,1]
 BV BOUND     y[3,1,2]
 BV BOUND     y[3,2,1]
 BV BOUND     y[3,2,2]
 BV BOUND     y[3,3,1]
 BV BOUND     y[3,3,2]
 BV BOUND     y[3,4,1]
 BV BOUND     y[3,4,2]
 BV BOUND     z[1,1]  
 BV BOUND     z[1,2]  
 BV BOUND     z[2,1]  
 BV BOUND     z[2,2]  
 BV BOUND     z[3,1]  
 BV BOUND     z[3,2]  
 BV BOUND     z[4,1]  
 BV BOUND     z[4,2]  
ENDATA
